c Random generated cnf formula, satisfiable: false
p cnf 10 50
6 5 7 0
3 -2 -5 0
8 -4 -6 0
1 8 -7 0
1 -6 -8 0
-7 -6 -2 0
-3 2 -4 0
-3 -1 -6 0
1 10 8 0
-5 -8 -9 0
-7 -2 -9 0
3 8 6 0
6 -3 7 0
-1 -4 -8 0
-7 -8 -1 0
-2 7 10 0
-8 5 -7 0
-1 -7 -8 0
-4 -3 1 0
-4 -2 5 0
-9 7 -5 0
-9 6 3 0
9 -3 -7 0
4 5 -1 0
8 -2 -7 0
-5 -3 4 0
-7 8 -6 0
9 7 4 0
-5 -1 3 0
-7 6 -10 0
3 7 5 0
3 -7 -2 0
3 -10 -6 0
-2 3 -10 0
3 2 -7 0
-5 10 -9 0
4 -9 -10 0
5 10 -8 0
-7 -10 -5 0
-4 2 -3 0
6 -5 -7 0
2 -8 -5 0
4 7 -3 0
8 4 -6 0
-6 -8 1 0
-5 4 -3 0
-8 -5 -9 0
1 -10 8 0
-1 10 5 0
3 2 -7 0
